Band structure for Si
20             ! 20 intersections
Line-mode      ! line-mode
rec            ! in units of the reciprocal lattice
  0.000  0.000  0.000  ! Gamma
  0.500  0.000  0.500  ! X
  
  0.500  0.000  0.500  ! X
  0.500  0.250  0.750  ! W
  
  0.500  0.250  0.750  ! W
  0.500  0.500  0.500  ! L
  
  0.500  0.500  0.500  ! L
  0.000  0.000  0.000  ! Gamma
